(set-info :source |
 Generated by Alive 0.1
 More info in N. P. Lopes, D. Menendez, S. Nagarakatte, J. Regehr.
 Provably Correct Peephole Optimizations with Alive. In PLDI'15.
|)

(set-info :status unknown)
(declare-fun C () (_ BitVec 36))
(declare-fun %x () (_ BitVec 36))
(assert
 (and (distinct (bvsub %x C) (bvadd %x (bvneg C))) true))
(check-sat)
